(set-logic QF_SLIA)
(declare-fun var0 () String)
(assert (str.in_re var0 (re.++ ((_ re.loop 0 3) (re.++ ((_ re.loop 4 8) (str.to_re "rhq")) (re.++ ((_ re.loop 1 12) (str.to_re "w")) (re.++ ((_ re.loop 0 11) (str.to_re "SL>")) ((_ re.loop 2 6) (str.to_re "b+!")))))) (re.++ ((_ re.loop 1 4) (re.++ ((_ re.loop 0 18) (str.to_re "c'e")) (re.++ ((_ re.loop 5 18) (str.to_re "1u&")) (re.++ ((_ re.loop 2 14) (str.to_re "E*")) ((_ re.loop 1 14) (str.to_re "N`g")))))) (re.++ ((_ re.loop 1 3) (re.++ ((_ re.loop 5 11) (str.to_re "TS")) (re.++ ((_ re.loop 1 11) (str.to_re ".$")) (re.++ ((_ re.loop 5 17) (str.to_re "1Dy")) ((_ re.loop 4 13) (str.to_re "-w")))))) ((_ re.loop 1 4) (re.++ ((_ re.loop 0 5) (str.to_re "\\")) (re.++ ((_ re.loop 1 11) (str.to_re "<")) (re.++ ((_ re.loop 4 7) (str.to_re ">")) ((_ re.loop 5 7) (str.to_re "9")))))))))))
(assert (not (str.in_re var0 (re.++ (re.* re.allchar) (re.++ (re.union (str.to_re "<") (re.union (str.to_re ">") (re.union (str.to_re "'") (re.union (str.to_re "\u0022") (str.to_re "&"))))) (re.* re.allchar))))))
(assert (<= 50 (str.len var0)))
(check-sat)
(get-model)
